864534
0,69,73,36,47,79,98,67,71,43,54,5,74,68,40,17,9,55,76,29,95,20,19,8,32,56,46,94,72,24,77,50,28,78,39,93,16,25,11,18,58,89,70,33,45,27,10,22,97,53,64,51,23,42,21,83,91,38,13,6,65,3,80,85,44,86,75,37,35,49,87,82,14,15,81,57,60,66,26,1,63,4,2,34,96,41,7,88,84,52,90,62,12,92,48,61,30,59,31,0